Maximize
 obj: 0 X1
Subject To
 c1:
  + 1 X9 + 1 X185 + 1 X89 + 1 X194 + 1 X166 + 1 X55 + 1 X120 + 1 X88
  + 1 X178
  <= 1
 c2:
  + 1 X118 + 1 X6 + 1 X124 + 1 X142 + 1 X144 + 1 X16 + 1 X103 + 1 X22
  + 1 X20 + 1 X190 + 1 X83 + 1 X158
  <= 1
 c3:
  + 1 X60 + 1 X173 + 1 X96 + 1 X102 + 1 X91 + 1 X197 + 1 X177 + 1 X80
  + 1 X51 + 1 X34 + 1 X142 + 1 X41 + 1 X62 + 1 X29 + 1 X172 + 1 X74
  <= 1
 c4:
  + 1 X104 + 1 X185 + 1 X63 + 1 X40 + 1 X27 + 1 X164 + 1 X33 + 1 X157
  + 1 X36 + 1 X120 + 1 X51 + 1 X62 + 1 X34 + 1 X76 + 1 X81 + 1 X125
  + 1 X78 + 1 X80 + 1 X10
  <= 1
 c5:
  + 1 X131 + 1 X191 + 1 X3 + 1 X112 + 1 X9 + 1 X35 + 1 X172 + 1 X17
  <= 1
 c6:
  + 1 X21 + 1 X127 + 1 X177 + 1 X121 + 1 X180 + 1 X45 + 1 X135 + 1 X85
  + 1 X149 + 1 X114 + 1 X152 + 1 X68 + 1 X118 + 1 X30
  <= 1
 c7:
  + 1 X39 + 1 X149 + 1 X5 + 1 X175 + 1 X100 + 1 X89
  <= 1
 c8:
  + 1 X185 + 1 X183 + 1 X88 + 1 X123 + 1 X14 + 1 X56 + 1 X117 + 1 X184
  + 1 X127 + 1 X84 + 1 X182 + 1 X62
  <= 1
 c9:
  + 1 X76 + 1 X36 + 1 X200 + 1 X21 + 1 X54 + 1 X148 + 1 X40 + 1 X115
  + 1 X29 + 1 X174 + 1 X166 + 1 X119 + 1 X77 + 1 X161 + 1 X17 + 1 X26
  + 1 X8 + 1 X123
  <= 1
 c10:
  + 1 X23 + 1 X32 + 1 X51 + 1 X63 + 1 X135 + 1 X19 + 1 X78 + 1 X46
  + 1 X192 + 1 X116 + 1 X39 + 1 X35 + 1 X173
  <= 1
 c11:
  + 1 X176 + 1 X65 + 1 X104 + 1 X35 + 1 X139 + 1 X36 + 1 X72 + 1 X87
  <= 1
 c12:
  + 1 X51 + 1 X98 + 1 X111 + 1 X43 + 1 X175 + 1 X156 + 1 X107 + 1 X149
  + 1 X126 + 1 X20 + 1 X71 + 1 X57 + 1 X159 + 1 X177 + 1 X172 + 1 X59
  <= 1
 c13:
  + 1 X139 + 1 X178 + 1 X122 + 1 X196 + 1 X28 + 1 X189 + 1 X132 + 1 X198
  <= 1
 c14:
  + 1 X28 + 1 X141 + 1 X139 + 1 X4 + 1 X126 + 1 X51 + 1 X66 + 1 X57
  + 1 X43
  <= 1
 c15:
  + 1 X115 + 1 X47 + 1 X160 + 1 X145 + 1 X143 + 1 X116 + 1 X133 + 1 X101
  + 1 X31 + 1 X164 + 1 X69 + 1 X106 + 1 X161 + 1 X112 + 1 X59 + 1 X48
  + 1 X117
  <= 1
 c16:
  + 1 X192 + 1 X157 + 1 X159 + 1 X144 + 1 X150 + 1 X69 + 1 X130 + 1 X193
  + 1 X187 + 1 X65 + 1 X68 + 1 X199
  <= 1
 c17:
  + 1 X28 + 1 X159 + 1 X81 + 1 X39 + 1 X194 + 1 X175 + 1 X77 + 1 X79
  + 1 X47 + 1 X172 + 1 X180 + 1 X40 + 1 X181 + 1 X97 + 1 X60 + 1 X101
  + 1 X116 + 1 X7
  <= 1
 c18:
  + 1 X27 + 1 X138 + 1 X75 + 1 X36 + 1 X1 + 1 X163 + 1 X84 + 1 X23
  + 1 X154 + 1 X89 + 1 X49 + 1 X120 + 1 X83 + 1 X65 + 1 X100 + 1 X104
  + 1 X35 + 1 X185 + 1 X186
  <= 1
 c19:
  + 1 X84 + 1 X5 + 1 X64 + 1 X121 + 1 X15 + 1 X94 + 1 X31 + 1 X156
  + 1 X150 + 1 X56 + 1 X75 + 1 X78 + 1 X140 + 1 X145 + 1 X52
  <= 1
 c20:
  + 1 X138 + 1 X15 + 1 X129
  <= 1
 c21:
  + 1 X12 + 1 X2 + 1 X27 + 1 X71 + 1 X32
  <= 1
 c22:
  + 1 X24 + 1 X197 + 1 X129 + 1 X191 + 1 X17 + 1 X23 + 1 X157 + 1 X20
  + 1 X175 + 1 X67 + 1 X112 + 1 X6 + 1 X13 + 1 X193 + 1 X97 + 1 X55
  + 1 X148 + 1 X75
  <= 1
 c23:
  + 1 X107 + 1 X109 + 1 X183 + 1 X136 + 1 X198 + 1 X152 + 1 X92 + 1 X46
  + 1 X150 + 1 X99 + 1 X66 + 1 X49 + 1 X173 + 1 X2
  <= 1
 c24:
  + 1 X147 + 1 X149 + 1 X135 + 1 X96 + 1 X116 + 1 X76 + 1 X13 + 1 X21
  + 1 X159 + 1 X161 + 1 X115 + 1 X15 + 1 X109 + 1 X94 + 1 X78 + 1 X69
  + 1 X151 + 1 X104 + 1 X170
  <= 1
 c25:
  + 1 X17 + 1 X194 + 1 X72 + 1 X116 + 1 X151 + 1 X61 + 1 X122 + 1 X87
  + 1 X149 + 1 X31 + 1 X78 + 1 X7 + 1 X20 + 1 X83 + 1 X23 + 1 X139
  + 1 X197
  <= 1
 c26:
  + 1 X71 + 1 X36 + 1 X1 + 1 X47 + 1 X158 + 1 X123 + 1 X134
  <= 1
 c27:
  + 1 X13 + 1 X195 + 1 X123 + 1 X200 + 1 X92 + 1 X132 + 1 X34 + 1 X163
  + 1 X68 + 1 X76 + 1 X112
  <= 1
 c28:
  + 1 X11 + 1 X184 + 1 X142 + 1 X100 + 1 X79 + 1 X84 + 1 X99 + 1 X191
  + 1 X104 + 1 X156 + 1 X188 + 1 X87 + 1 X67
  <= 1
 c29:
  + 1 X1 + 1 X55 + 1 X51 + 1 X150 + 1 X110
  <= 1
 c30:
  + 1 X177 + 1 X23 + 1 X11 + 1 X169 + 1 X16 + 1 X151 + 1 X124 + 1 X97
  + 1 X29 + 1 X130 + 1 X85 + 1 X54 + 1 X161 + 1 X118 + 1 X116 + 1 X144
  + 1 X171
  <= 1
 c31:
  + 1 X121 + 1 X67 + 1 X22 + 1 X125 + 1 X37 + 1 X131 + 1 X38 + 1 X126
  + 1 X184 + 1 X120 + 1 X114 + 1 X31
  <= 1
 c32:
  + 1 X86 + 1 X67 + 1 X146 + 1 X159 + 1 X96 + 1 X115 + 1 X23 + 1 X38
  + 1 X150 + 1 X52 + 1 X151 + 1 X154 + 1 X161 + 1 X7 + 1 X193 + 1 X117
  + 1 X1
  <= 1
 c33:
  + 1 X91 + 1 X101 + 1 X181 + 1 X15 + 1 X69 + 1 X72
  <= 1
 c34:
  + 1 X13 + 1 X143 + 1 X162 + 1 X188 + 1 X31 + 1 X26 + 1 X67 + 1 X192
  + 1 X147 + 1 X96 + 1 X190 + 1 X10 + 1 X27 + 1 X111 + 1 X183 + 1 X137
  + 1 X160 + 1 X158 + 1 X36 + 1 X198
  <= 1
 c35:
  + 1 X24 + 1 X56 + 1 X133 + 1 X2 + 1 X144 + 1 X41 + 1 X164 + 1 X183
  <= 1
 c36:
  + 1 X5 + 1 X19 + 1 X98 + 1 X146 + 1 X172 + 1 X68 + 1 X149 + 1 X170
  + 1 X75 + 1 X102 + 1 X18
  <= 1
 c37:
  + 1 X186 + 1 X136
  <= 1
 c38:
  + 1 X52 + 1 X175 + 1 X29 + 1 X65 + 1 X130 + 1 X42 + 1 X64 + 1 X125
  + 1 X153 + 1 X58 + 1 X22 + 1 X110 + 1 X88 + 1 X163 + 1 X198 + 1 X30
  + 1 X80 + 1 X135
  <= 1
 c39:
  + 1 X200 + 1 X87 + 1 X117 + 1 X179 + 1 X128
  <= 1
 c40:
  + 1 X95 + 1 X149 + 1 X158 + 1 X194 + 1 X168 + 1 X15 + 1 X99 + 1 X109
  + 1 X161 + 1 X154 + 1 X68
  <= 1
 obj1:
  + 83 X1 + 5 X2 + 12 X3 + 38 X4 + 8 X5 + 35 X6 + 18 X7 + 26 X8
  + 13 X9 + 90 X10 + 3 X11 + 21 X12 + 39 X13 + 33 X14 + 39 X15 + 52 X16
  + 83 X17 + 56 X18 + 44 X19 + 58 X20 + 63 X21 + 4 X22 + 99 X23 + 12 X24
  + 22 X25 + 31 X26 + 64 X27 + 14 X28 + 26 X29 + 2 X30 + 21 X31 + 85 X32
  + 19 X33 + 46 X34 + 71 X35 + 97 X36 + 61 X37 + 1 X38 + 99 X39 + 15 X40
  + 21 X41 + 90 X42 + 51 X43 + 63 X44 + 96 X45 + 61 X46 + 28 X47 + 68 X48
  + 11 X49 + 70 X50 + 51 X51 + 10 X52 + 100 X53 + 39 X54 + 65 X55 + 77 X56
  + 59 X57 + 53 X58 + 84 X59 + 13 X60 + 7 X61 + 64 X62 + 12 X63 + 45 X64
  + 32 X65 + 57 X66 + 93 X67 + 25 X68 + 62 X69 + 30 X70 + 55 X71 + 1 X72
  + 91 X73 + 55 X74 + 91 X75 + 63 X76 + 42 X77 + 93 X78 + 98 X79 + 81 X80
  + 16 X81 + 79 X82 + 28 X83 + 72 X84 + 95 X85 + 62 X86 + 9 X87 + 46 X88
  + 27 X89 + 67 X90 + 83 X91 + 86 X92 + 82 X93 + 18 X94 + 4 X95 + 69 X96
  + 54 X97 + 45 X98 + 35 X99 + 16 X100 + 44 X101 + 66 X102 + 54 X103 + 47 X104
  + 49 X105 + 3 X106 + 95 X107 + 11 X108 + 60 X109 + 38 X110 + 26 X111 + 2 X112
  + 40 X113 + 92 X114 + 22 X115 + 96 X116 + 21 X117 + 66 X118 + 48 X119 + 35 X120
  + 31 X121 + 93 X122 + 43 X123 + 51 X124 + 58 X125 + 22 X126 + 40 X127 + 10 X128
  + 7 X129 + 53 X130 + 89 X131 + 26 X132 + 66 X133 + 23 X134 + 11 X135 + 67 X136
  + 36 X137 + 44 X138 + 41 X139 + 17 X140 + 56 X141 + 81 X142 + 16 X143 + 42 X144
  + 69 X145 + 99 X146 + 7 X147 + 37 X148 + 16 X149 + 75 X150 + 39 X151 + 7 X152
  + 70 X153 + 34 X154 + 74 X155 + 51 X156 + 6 X157 + 84 X158 + 75 X159 + 91 X160
  + 23 X161 + 33 X162 + 80 X163 + 35 X164 + 21 X165 + 62 X166 + 84 X167 + 84 X168
  + 34 X169 + 23 X170 + 21 X171 + 4 X172 + 37 X173 + 90 X174 + 48 X175 + 72 X176
  + 48 X177 + 74 X178 + 78 X179 + 57 X180 + 99 X181 + 25 X182 + 53 X183 + 92 X184
  + 81 X185 + 17 X186 + 31 X187 + 36 X188 + 28 X189 + 45 X190 + 92 X191 + 14 X192
  + 70 X193 + 63 X194 + 24 X195 + 45 X196 + 68 X197 + 33 X198 + 22 X199 + 45 X200
  >= 1
 obj2:
  + 86 X1 + 92 X2 + 47 X3 + 50 X4 + 53 X5 + 89 X6 + 80 X7 + 95 X8
  + 72 X9 + 85 X10 + 63 X11 + 38 X12 + 34 X13 + 77 X14 + 71 X15 + 92 X16
  + 72 X17 + 98 X18 + 77 X19 + 54 X20 + 9 X21 + 70 X22 + 73 X23 + 72 X24
  + 77 X25 + 18 X26 + 92 X27 + 43 X28 + 8 X29 + 32 X30 + 88 X31 + 95 X32
  + 81 X33 + 4 X34 + 15 X35 + 91 X36 + 74 X37 + 6 X38 + 13 X39 + 27 X40
  + 40 X41 + 44 X42 + 99 X43 + 98 X44 + 81 X45 + 44 X46 + 47 X47 + 16 X48
  + 32 X49 + 43 X50 + 3 X51 + 10 X52 + 61 X53 + 9 X54 + 17 X55 + 40 X56
  + 18 X57 + 43 X58 + 6 X59 + 6 X60 + 46 X61 + 31 X62 + 66 X63 + 11 X64
  + 93 X65 + 10 X66 + 89 X67 + 82 X68 + 31 X69 + 1 X70 + 85 X71 + 40 X72
  + 94 X73 + 61 X74 + 85 X75 + 1 X76 + 14 X77 + 55 X78 + 17 X79 + 67 X80
  + 51 X81 + 17 X82 + 56 X83 + 86 X84 + 49 X85 + 59 X86 + 64 X87 + 98 X88
  + 98 X89 + 28 X90 + 52 X91 + 74 X92 + 99 X93 + 3 X94 + 66 X95 + 29 X96
  + 87 X97 + 54 X98 + 30 X99 + 25 X100 + 99 X101 + 89 X102 + 18 X103 + 53 X104
  + 39 X105 + 49 X106 + 85 X107 + 71 X108 + 48 X109 + 37 X110 + 61 X111 + 15 X112
  + 52 X113 + 56 X114 + 53 X115 + 89 X116 + 72 X117 + 97 X118 + 6 X119 + 34 X120
  + 1 X121 + 21 X122 + 66 X123 + 18 X124 + 69 X125 + 32 X126 + 6 X127 + 44 X128
  + 32 X129 + 54 X130 + 81 X131 + 89 X132 + 21 X133 + 38 X134 + 52 X135 + 47 X136
  + 18 X137 + 91 X138 + 66 X139 + 18 X140 + 94 X141 + 46 X142 + 72 X143 + 84 X144
  + 57 X145 + 80 X146 + 77 X147 + 42 X148 + 42 X149 + 50 X150 + 35 X151 + 80 X152
  + 21 X153 + 12 X154 + 61 X155 + 62 X156 + 50 X157 + 73 X158 + 34 X159 + 97 X160
  + 83 X161 + 74 X162 + 56 X163 + 58 X164 + 53 X165 + 50 X166 + 96 X167 + 71 X168
  + 68 X169 + 98 X170 + 51 X171 + 43 X172 + 65 X173 + 92 X174 + 37 X175 + 76 X176
  + 92 X177 + 13 X178 + 47 X179 + 29 X180 + 61 X181 + 56 X182 + 48 X183 + 88 X184
  + 51 X185 + 7 X186 + 36 X187 + 36 X188 + 87 X189 + 42 X190 + 49 X191 + 20 X192
  + 31 X193 + 18 X194 + 86 X195 + 12 X196 + 48 X197 + 21 X198 + 96 X199 + 32 X200
  >= 2
 obj3:
  + 85 X1 + 36 X2 + 4 X3 + 34 X4 + 93 X5 + 59 X6 + 26 X7 + 63 X8
  + 69 X9 + 1 X10 + 66 X11 + 21 X12 + 20 X13 + 74 X14 + 92 X15 + 30 X16
  + 33 X17 + 11 X18 + 45 X19 + 20 X20 + 36 X21 + 22 X22 + 14 X23 + 50 X24
  + 69 X25 + 82 X26 + 58 X27 + 72 X28 + 31 X29 + 40 X30 + 58 X31 + 58 X32
  + 42 X33 + 49 X34 + 63 X35 + 77 X36 + 73 X37 + 17 X38 + 31 X39 + 60 X40
  + 82 X41 + 27 X42 + 29 X43 + 43 X44 + 34 X45 + 96 X46 + 7 X47 + 2 X48
  + 38 X49 + 76 X50 + 65 X51 + 6 X52 + 79 X53 + 90 X54 + 76 X55 + 62 X56
  + 11 X57 + 58 X58 + 96 X59 + 4 X60 + 61 X61 + 2 X62 + 40 X63 + 67 X64
  + 73 X65 + 58 X66 + 45 X67 + 96 X68 + 26 X69 + 44 X70 + 7 X71 + 7 X72
  + 33 X73 + 62 X74 + 88 X75 + 71 X76 + 41 X77 + 92 X78 + 35 X79 + 49 X80
  + 60 X81 + 4 X82 + 20 X83 + 53 X84 + 57 X85 + 88 X86 + 60 X87 + 35 X88
  + 7 X89 + 23 X90 + 81 X91 + 72 X92 + 29 X93 + 83 X94 + 40 X95 + 49 X96
  + 74 X97 + 94 X98 + 44 X99 + 9 X100 + 59 X101 + 4 X102 + 80 X103 + 35 X104
  + 31 X105 + 18 X106 + 35 X107 + 64 X108 + 91 X109 + 93 X110 + 63 X111 + 39 X112
  + 21 X113 + 28 X114 + 15 X115 + 85 X116 + 76 X117 + 79 X118 + 26 X119 + 72 X120
  + 31 X121 + 59 X122 + 37 X123 + 44 X124 + 63 X125 + 100 X126 + 78 X127 + 26 X128
  + 33 X129 + 74 X130 + 99 X131 + 97 X132 + 44 X133 + 93 X134 + 70 X135 + 56 X136
  + 10 X137 + 22 X138 + 61 X139 + 19 X140 + 20 X141 + 77 X142 + 87 X143 + 90 X144
  + 94 X145 + 43 X146 + 91 X147 + 8 X148 + 89 X149 + 43 X150 + 4 X151 + 19 X152
  + 18 X153 + 63 X154 + 87 X155 + 77 X156 + 70 X157 + 24 X158 + 49 X159 + 60 X160
  + 11 X161 + 54 X162 + 60 X163 + 77 X164 + 65 X165 + 42 X166 + 70 X167 + 57 X168
  + 39 X169 + 27 X170 + 79 X171 + 10 X172 + 98 X173 + 68 X174 + 100 X175 + 85 X176
  + 14 X177 + 12 X178 + 74 X179 + 24 X180 + 88 X181 + 74 X182 + 63 X183 + 38 X184
  + 32 X185 + 57 X186 + 84 X187 + 7 X188 + 54 X189 + 33 X190 + 61 X191 + 36 X192
  + 8 X193 + 2 X194 + 79 X195 + 7 X196 + 96 X197 + 66 X198 + 43 X199 + 16 X200
  >= 3
 obj4:
  + 98 X1 + 16 X2 + 33 X3 + 60 X4 + 95 X5 + 2 X6 + 36 X7 + 20 X8
  + 76 X9 + 64 X10 + 100 X11 + 38 X12 + 24 X13 + 56 X14 + 54 X15 + 82 X16
  + 56 X17 + 75 X18 + 67 X19 + 2 X20 + 12 X21 + 82 X22 + 29 X23 + 78 X24
  + 80 X25 + 5 X26 + 58 X27 + 60 X28 + 45 X29 + 87 X30 + 47 X31 + 96 X32
  + 59 X33 + 80 X34 + 31 X35 + 99 X36 + 52 X37 + 56 X38 + 36 X39 + 16 X40
  + 76 X41 + 68 X42 + 31 X43 + 38 X44 + 13 X45 + 25 X46 + 11 X47 + 47 X48
  + 66 X49 + 11 X50 + 68 X51 + 23 X52 + 96 X53 + 57 X54 + 18 X55 + 53 X56
  + 17 X57 + 36 X58 + 89 X59 + 32 X60 + 90 X61 + 55 X62 + 77 X63 + 42 X64
  + 86 X65 + 16 X66 + 83 X67 + 74 X68 + 9 X69 + 22 X70 + 10 X71 + 79 X72
  + 24 X73 + 75 X74 + 29 X75 + 74 X76 + 23 X77 + 73 X78 + 14 X79 + 68 X80
  + 87 X81 + 10 X82 + 94 X83 + 33 X84 + 79 X85 + 78 X86 + 46 X87 + 90 X88
  + 13 X89 + 23 X90 + 50 X91 + 45 X92 + 98 X93 + 5 X94 + 6 X95 + 17 X96
  + 50 X97 + 91 X98 + 1 X99 + 12 X100 + 5 X101 + 83 X102 + 12 X103 + 76 X104
  + 41 X105 + 66 X106 + 39 X107 + 88 X108 + 61 X109 + 33 X110 + 25 X111 + 37 X112
  + 49 X113 + 72 X114 + 93 X115 + 27 X116 + 90 X117 + 63 X118 + 42 X119 + 84 X120
  + 19 X121 + 22 X122 + 92 X123 + 79 X124 + 61 X125 + 7 X126 + 23 X127 + 36 X128
  + 57 X129 + 98 X130 + 61 X131 + 5 X132 + 57 X133 + 85 X134 + 82 X135 + 41 X136
  + 56 X137 + 52 X138 + 83 X139 + 58 X140 + 68 X141 + 71 X142 + 13 X143 + 50 X144
  + 51 X145 + 61 X146 + 100 X147 + 17 X148 + 10 X149 + 19 X150 + 5 X151 + 50 X152
  + 57 X153 + 99 X154 + 82 X155 + 82 X156 + 90 X157 + 1 X158 + 49 X159 + 50 X160
  + 59 X161 + 38 X162 + 57 X163 + 11 X164 + 9 X165 + 20 X166 + 33 X167 + 77 X168
  + 66 X169 + 77 X170 + 14 X171 + 16 X172 + 33 X173 + 19 X174 + 73 X175 + 8 X176
  + 85 X177 + 28 X178 + 68 X179 + 13 X180 + 94 X181 + 77 X182 + 89 X183 + 3 X184
  + 85 X185 + 74 X186 + 52 X187 + 44 X188 + 6 X189 + 8 X190 + 93 X191 + 83 X192
  + 57 X193 + 24 X194 + 21 X195 + 21 X196 + 83 X197 + 75 X198 + 41 X199 + 36 X200
  >= 4
Binary
 X1
 X2
 X3
 X4
 X5
 X6
 X7
 X8
 X9
 X10
 X11
 X12
 X13
 X14
 X15
 X16
 X17
 X18
 X19
 X20
 X21
 X22
 X23
 X24
 X25
 X26
 X27
 X28
 X29
 X30
 X31
 X32
 X33
 X34
 X35
 X36
 X37
 X38
 X39
 X40
 X41
 X42
 X43
 X44
 X45
 X46
 X47
 X48
 X49
 X50
 X51
 X52
 X53
 X54
 X55
 X56
 X57
 X58
 X59
 X60
 X61
 X62
 X63
 X64
 X65
 X66
 X67
 X68
 X69
 X70
 X71
 X72
 X73
 X74
 X75
 X76
 X77
 X78
 X79
 X80
 X81
 X82
 X83
 X84
 X85
 X86
 X87
 X88
 X89
 X90
 X91
 X92
 X93
 X94
 X95
 X96
 X97
 X98
 X99
 X100
 X101
 X102
 X103
 X104
 X105
 X106
 X107
 X108
 X109
 X110
 X111
 X112
 X113
 X114
 X115
 X116
 X117
 X118
 X119
 X120
 X121
 X122
 X123
 X124
 X125
 X126
 X127
 X128
 X129
 X130
 X131
 X132
 X133
 X134
 X135
 X136
 X137
 X138
 X139
 X140
 X141
 X142
 X143
 X144
 X145
 X146
 X147
 X148
 X149
 X150
 X151
 X152
 X153
 X154
 X155
 X156
 X157
 X158
 X159
 X160
 X161
 X162
 X163
 X164
 X165
 X166
 X167
 X168
 X169
 X170
 X171
 X172
 X173
 X174
 X175
 X176
 X177
 X178
 X179
 X180
 X181
 X182
 X183
 X184
 X185
 X186
 X187
 X188
 X189
 X190
 X191
 X192
 X193
 X194
 X195
 X196
 X197
 X198
 X199
 X200
End
